NAME 
ROWS
 N  OBJ
 L  R0      
 E  R1      
 E  R2      
 E  R3      
 E  R4      
 E  R5      
 E  R6      
 E  R7      
 E  R8      
 E  R9      
 E  R10     
 E  R11     
 E  R12     
 E  R13     
 E  R14     
 E  R15     
COLUMNS
    MARKER    'MARKER'                 'INTORG'
    I0(7)     OBJ       41
    I0(7)     R0        121
    I0(7)     R2        14
    I0(7)     R3        14
    I0(7)     R4        6
    I0(7)     R5        1
    I0(7)     R6        9
    I0(7)     R15       1
    I1(8)     OBJ       86
    I1(8)     R0        -101
    I1(8)     R1        17
    I1(8)     R2        4
    I1(8)     R3        7
    I1(8)     R4        6
    I1(8)     R5        4
    I1(8)     R7        18
    I1(8)     R15       1
    I2(8)     OBJ       -16
    I2(8)     R0        191
    I2(8)     R1        18
    I2(8)     R2        19
    I2(8)     R4        4
    I2(8)     R5        1
    I2(8)     R6        18
    I2(8)     R7        9
    I2(8)     R15       1
    I3(7)     OBJ       180
    I3(7)     R0        -119
    I3(7)     R1        13
    I3(7)     R2        1
    I3(7)     R3        11
    I3(7)     R6        7
    I3(7)     R7        1
    I3(7)     R15       1
    I4(8)     OBJ       -74
    I4(8)     R0        107
    I4(8)     R1        19
    I4(8)     R3        4
    I4(8)     R4        2
    I4(8)     R5        17
    I4(8)     R6        10
    I4(8)     R7        18
    I4(8)     R15       1
    I5(8)     OBJ       149
    I5(8)     R0        -176
    I5(8)     R1        12
    I5(8)     R2        7
    I5(8)     R3        16
    I5(8)     R4        18
    I5(8)     R5        4
    I5(8)     R6        14
    I5(8)     R15       1
    I6(6)     OBJ       -159
    I6(6)     R0        -112
    I6(6)     R1        10
    I6(6)     R3        7
    I6(6)     R5        -1
    I6(6)     R7        2
    I6(6)     R15       1
    MARKER    'MARKER'                 'INTEND'
    C7(12)    OBJ       -4
    C7(12)    R0        6
    C7(12)    R1        3
    C7(12)    R2        5
    C7(12)    R3        9
    C7(12)    R5        5
    C7(12)    R7        9
    C7(12)    R9        12
    C7(12)    R10       1
    C7(12)    R11       3
    C7(12)    R12       2
    C7(12)    R13       6
    C7(12)    R14       14
    C8(12)    OBJ       6
    C8(12)    R0        8
    C8(12)    R1        9
    C8(12)    R2        -1
    C8(12)    R3        -1
    C8(12)    R4        1
    C8(12)    R5        2
    C8(12)    R8        4
    C8(12)    R9        6
    C8(12)    R10       15
    C8(12)    R12       18
    C8(12)    R13       17
    C8(12)    R14       19
    C9(13)    OBJ       9
    C9(13)    R0        -7
    C9(13)    R1        5
    C9(13)    R2        17
    C9(13)    R3        2
    C9(13)    R5        3
    C9(13)    R6        4
    C9(13)    R7        10
    C9(13)    R8        6
    C9(13)    R9        2
    C9(13)    R10       10
    C9(13)    R11       14
    C9(13)    R12       17
    C9(13)    R14       -1
    C10(10)   OBJ       -10
    C10(10)   R0        -7
    C10(10)   R2        1
    C10(10)   R5        6
    C10(10)   R7        -1
    C10(10)   R8        -1
    C10(10)   R9        10
    C10(10)   R11       8
    C10(10)   R12       6
    C10(10)   R13       15
    C10(10)   R14       8
    C11(14)   OBJ       3
    C11(14)   R0        -4
    C11(14)   R1        13
    C11(14)   R2        14
    C11(14)   R3        5
    C11(14)   R4        14
    C11(14)   R6        1
    C11(14)   R7        2
    C11(14)   R8        19
    C11(14)   R9        11
    C11(14)   R10       3
    C11(14)   R11       17
    C11(14)   R12       14
    C11(14)   R13       6
    C11(14)   R14       13
    C12(11)   OBJ       -2
    C12(11)   R0        -9
    C12(11)   R1        12
    C12(11)   R3        19
    C12(11)   R4        10
    C12(11)   R5        -1
    C12(11)   R6        17
    C12(11)   R7        3
    C12(11)   R8        12
    C12(11)   R11       6
    C12(11)   R12       7
    C12(11)   R13       4
    C13(12)   OBJ       1
    C13(12)   R0        -9
    C13(12)   R3        15
    C13(12)   R4        11
    C13(12)   R5        13
    C13(12)   R6        15
    C13(12)   R7        10
    C13(12)   R8        9
    C13(12)   R10       19
    C13(12)   R11       1
    C13(12)   R12       16
    C13(12)   R13       10
    C13(12)   R14       4
    C14(14)   OBJ       8
    C14(14)   R0        -5
    C14(14)   R1        5
    C14(14)   R2        5
    C14(14)   R3        5
    C14(14)   R4        15
    C14(14)   R5        3
    C14(14)   R6        19
    C14(14)   R7        9
    C14(14)   R8        4
    C14(14)   R9        4
    C14(14)   R10       4
    C14(14)   R11       3
    C14(14)   R12       10
    C14(14)   R13       9
    C15(1)    R1        1
    C16(1)    R2        1
    C17(1)    R3        1
    C18(1)    R4        1
    C19(1)    R5        1
    C20(1)    R6        1
    C21(1)    R7        1
    C22(1)    R8        1
    C23(1)    R9        1
    C24(1)    R10       1
    C25(1)    R11       1
    C26(1)    R12       1
    C27(1)    R13       1
    C28(1)    R14       1
    C29(1)    R15       1
RHS
    RHS1      R0        -2.9266666666666666e+01
    RHS1      R1        56
    RHS1      R2        52
    RHS1      R3        57
    RHS1      R4        79
    RHS1      R5        90
    RHS1      R6        82
    RHS1      R7        52
    RHS1      R8        81
    RHS1      R9        66
    RHS1      R10       53
    RHS1      R11       77
    RHS1      R12       69
    RHS1      R13       52
    RHS1      R14       63
    RHS1      R15       2
BOUNDS
 UP BND1      I0(7)     1
 UP BND1      I1(8)     1
 UP BND1      I2(8)     1
 UP BND1      I3(7)     1
 UP BND1      I4(8)     1
 UP BND1      I5(8)     1
 UP BND1      I6(6)     1
ENDATA
